letting n =  10
letting blocks =  [[1, 1], [1, 7], [1, 10], [2, 1], [2, 5], [3, 5], [3, 6], [4, 1], [4, 4], [4, 5], [4, 10], [5, 7], [5, 9], [6, 2], [6, 6], [6, 8], [6, 9], [6, 10], [7, 1], [7, 3], [7, 4], [7, 9], [8, 2], [8, 3], [8, 8], [9, 6], [10, 1], [10, 7]]
